p cnf 526 1255
a 442 445 328 331 336 339 343 346 352 355 359 362 367 370 374 377 384 387 391 394 399 402 406 409 415 418 509 318 424 427 431 434 7 13 24 30 2 1 40 18 6 12 35 23 29 50 45 60 55 70 65 80 75 85 90 95 105 100 110 115 120 130 125 135 140 145 180 159 154 150 176 171 163 167 189 185 202 197 193 206 215 210 224 220 234 229 239 244 249 259 254 264 269 274 283 279 288 293 298 303 308 313 317 323 0
d 327 180 189 442 202 206 0
d 422 313 317 323 2 509 0
d 181 445 159 176 2 0
d 3 2 0
d 4 1 2 0
d 5 1 2 0
d 8 7 0
d 9 6 7 0
d 10 6 7 0
d 11 1 2 6 7 0
d 14 13 0
d 15 12 13 0
d 16 12 13 0
d 17 1 2 6 7 12 13 0
d 19 6 12 0
d 20 18 6 12 0
d 21 18 6 12 0
d 22 1 2 6 7 12 13 18 0
d 25 24 0
d 26 23 24 0
d 27 23 24 0
d 28 1 2 6 7 12 13 18 23 24 0
d 31 30 0
d 32 29 30 0
d 33 29 30 0
d 34 1 2 6 7 12 13 18 23 24 29 30 0
d 36 23 29 0
d 37 35 23 29 0
d 38 35 23 29 0
d 39 1 2 6 7 12 13 18 23 24 29 30 35 0
d 41 18 35 0
d 42 40 18 35 0
d 43 40 18 35 0
d 44 1 2 6 7 12 13 18 23 24 29 30 35 40 0
d 46 7 12 0
d 47 45 7 12 0
d 48 45 7 12 0
d 49 1 2 6 7 12 13 18 23 24 29 30 35 40 45 0
d 51 45 35 0
d 52 50 45 35 0
d 53 50 45 35 0
d 54 1 2 6 7 12 13 18 23 24 29 30 35 40 45 50 0
d 56 6 13 0
d 57 55 6 13 0
d 58 55 6 13 0
d 59 1 2 6 7 12 13 18 23 24 29 30 35 40 45 50 55 0
d 61 55 35 0
d 62 60 55 35 0
d 63 60 55 35 0
d 64 1 2 6 7 12 13 18 23 24 29 30 35 40 45 50 55 60 0
d 66 7 13 0
d 67 65 7 13 0
d 68 65 7 13 0
d 69 1 2 6 7 12 13 18 23 24 29 30 35 40 45 50 55 60 65 0
d 71 65 35 0
d 72 70 65 35 0
d 73 70 65 35 0
d 74 1 2 6 7 12 13 18 23 24 29 30 35 40 45 50 55 60 65 70 0
d 76 24 29 0
d 77 75 24 29 0
d 78 75 24 29 0
d 79 1 2 6 7 12 13 18 23 24 29 30 35 40 45 50 55 60 65 70 75 0
d 81 18 75 0
d 82 80 18 75 0
d 83 80 18 75 0
d 84 1 2 6 7 12 13 18 23 24 29 30 35 40 45 50 55 60 65 70 75 80 0
d 86 45 75 0
d 87 85 45 75 0
d 88 85 45 75 0
d 89 1 2 6 7 12 13 18 23 24 29 30 35 40 45 50 55 60 65 70 75 80 85 0
d 91 55 75 0
d 92 90 55 75 0
d 93 90 55 75 0
d 94 1 2 6 7 12 13 18 23 24 29 30 35 40 45 50 55 60 65 70 75 80 85 90 0
d 96 65 75 0
d 97 95 65 75 0
d 98 95 65 75 0
d 99 1 2 6 7 12 13 18 23 24 29 30 35 40 45 50 55 60 65 70 75 80 85 90 95 0
d 101 23 30 0
d 102 100 23 30 0
d 103 100 23 30 0
d 104 1 2 6 7 12 13 18 23 24 29 30 35 40 45 50 55 60 65 70 75 80 85 90 95 100 0
d 106 18 100 0
d 107 105 18 100 0
d 108 105 18 100 0
d 109 1 2 6 7 12 13 18 23 24 29 30 35 40 45 50 55 60 65 70 75 80 85 90 95 100 105 0
d 111 45 100 0
d 112 110 45 100 0
d 113 110 45 100 0
d 114 1 2 6 7 12 13 18 23 24 29 30 35 40 45 50 55 60 65 70 75 80 85 90 95 100 105 110 0
d 116 55 100 0
d 117 115 55 100 0
d 118 115 55 100 0
d 119 1 2 6 7 12 13 18 23 24 29 30 35 40 45 50 55 60 65 70 75 80 85 90 95 100 105 110 115 0
d 121 65 100 0
d 122 120 65 100 0
d 123 120 65 100 0
d 124 1 2 6 7 12 13 18 23 24 29 30 35 40 45 50 55 60 65 70 75 80 85 90 95 100 105 110 115 120 0
d 126 24 30 0
d 127 125 24 30 0
d 128 125 24 30 0
d 129 1 2 6 7 12 13 18 23 24 29 30 35 40 45 50 55 60 65 70 75 80 85 90 95 100 105 110 115 120 125 0
d 131 18 125 0
d 132 130 18 125 0
d 133 130 18 125 0
d 134 1 2 6 7 12 13 18 23 24 29 30 35 40 45 50 55 60 65 70 75 80 85 90 95 100 105 110 115 120 125 130 0
d 136 45 125 0
d 137 135 45 125 0
d 138 135 45 125 0
d 139 1 2 6 7 12 13 18 23 24 29 30 35 40 45 50 55 60 65 70 75 80 85 90 95 100 105 110 115 120 125 130 135 0
d 141 55 125 0
d 142 140 55 125 0
d 143 140 55 125 0
d 144 1 2 6 7 12 13 18 23 24 29 30 35 40 45 50 55 60 65 70 75 80 85 90 95 100 105 110 115 120 125 130 135 140 0
d 146 65 125 0
d 147 145 65 125 0
d 148 145 65 125 0
d 149 1 2 6 7 12 13 18 23 24 29 30 35 40 45 50 55 60 65 70 75 80 85 90 95 100 105 110 115 120 125 130 135 140 145 0
d 151 150 13 0
d 152 150 13 0
d 153 1 2 6 7 12 13 18 23 24 29 30 35 40 45 50 55 60 65 70 75 80 85 90 95 100 105 110 115 120 125 130 135 140 145 150 0
d 155 7 150 0
d 156 154 7 150 0
d 157 154 7 150 0
d 158 1 2 6 7 12 13 18 23 24 29 30 35 40 45 50 55 60 65 70 75 80 85 90 95 100 105 110 115 120 125 130 135 140 145 150 154 0
d 160 159 154 0
d 161 159 154 0
d 162 1 2 6 7 12 13 18 23 24 29 30 35 40 45 50 55 60 65 70 75 80 85 90 95 100 105 110 115 120 125 130 135 140 145 150 154 159 0
d 164 163 24 0
d 165 163 24 0
d 166 1 2 6 7 12 13 18 23 24 29 30 35 40 45 50 55 60 65 70 75 80 85 90 95 100 105 110 115 120 125 130 135 140 145 150 154 159 163 0
d 168 167 30 0
d 169 167 30 0
d 170 1 2 6 7 12 13 18 23 24 29 30 35 40 45 50 55 60 65 70 75 80 85 90 95 100 105 110 115 120 125 130 135 140 145 150 154 159 163 167 0
d 172 163 167 0
d 173 171 163 167 0
d 174 171 163 167 0
d 175 1 2 6 7 12 13 18 23 24 29 30 35 40 45 50 55 60 65 70 75 80 85 90 95 100 105 110 115 120 125 130 135 140 145 150 154 159 163 167 171 0
d 177 176 171 0
d 178 176 171 0
d 179 1 2 6 7 12 13 18 23 24 29 30 35 40 45 50 55 60 65 70 75 80 85 90 95 100 105 110 115 120 125 130 135 140 145 150 154 159 163 167 171 176 0
d 182 180 445 159 176 2 0
d 183 180 445 159 176 2 0
d 184 1 2 6 7 12 13 18 23 24 29 30 35 40 45 50 55 60 65 70 75 80 85 90 95 100 105 110 115 120 125 130 135 140 145 150 154 159 163 167 171 176 180 445 0
d 186 185 2 0
d 187 185 2 0
d 188 1 2 6 7 12 13 18 23 24 29 30 35 40 45 50 55 60 65 70 75 80 85 90 95 100 105 110 115 120 125 130 135 140 145 150 154 159 163 167 171 176 180 445 185 0
d 190 189 185 0
d 191 189 185 0
d 192 1 2 6 7 12 13 18 23 24 29 30 35 40 45 50 55 60 65 70 75 80 85 90 95 100 105 110 115 120 125 130 135 140 145 150 154 159 163 167 171 176 180 445 185 189 0
d 194 193 7 0
d 195 193 7 0
d 196 1 2 6 7 12 13 18 23 24 29 30 35 40 45 50 55 60 65 70 75 80 85 90 95 100 105 110 115 120 125 130 135 140 145 150 154 159 163 167 171 176 180 445 185 189 193 0
d 198 193 150 0
d 199 197 193 150 0
d 200 197 193 150 0
d 201 1 2 6 7 12 13 18 23 24 29 30 35 40 45 50 55 60 65 70 75 80 85 90 95 100 105 110 115 120 125 130 135 140 145 150 154 159 163 167 171 176 180 445 185 189 193 197 0
d 203 202 197 0
d 204 202 197 0
d 205 1 2 6 7 12 13 18 23 24 29 30 35 40 45 50 55 60 65 70 75 80 85 90 95 100 105 110 115 120 125 130 135 140 145 150 154 159 163 167 171 176 180 445 185 189 193 197 202 0
d 207 206 171 0
d 208 206 171 0
d 209 1 2 6 7 12 13 18 23 24 29 30 35 40 45 50 55 60 65 70 75 80 85 90 95 100 105 110 115 120 125 130 135 140 145 150 154 159 163 167 171 176 180 445 185 189 193 197 202 206 0
d 211 193 13 0
d 212 210 193 13 0
d 213 210 193 13 0
d 214 1 2 6 7 12 13 18 23 24 29 30 35 40 45 50 55 60 65 70 75 80 85 90 95 100 105 110 115 120 125 130 135 140 145 150 154 159 163 167 171 176 180 445 185 189 193 197 202 206 210 0
d 216 210 171 0
d 217 215 210 171 0
d 218 215 210 171 0
d 219 1 2 6 7 12 13 18 23 24 29 30 35 40 45 50 55 60 65 70 75 80 85 90 95 100 105 110 115 120 125 130 135 140 145 150 154 159 163 167 171 176 180 445 185 189 193 197 202 206 210 215 0
d 221 220 7 13 0
d 222 220 7 13 0
d 223 1 2 6 7 12 13 18 23 24 29 30 35 40 45 50 55 60 65 70 75 80 85 90 95 100 105 110 115 120 125 130 135 140 145 150 154 159 163 167 171 176 180 445 185 189 193 197 202 206 210 215 220 0
d 225 220 171 0
d 226 224 220 171 0
d 227 224 220 171 0
d 228 1 2 6 7 12 13 18 23 24 29 30 35 40 45 50 55 60 65 70 75 80 85 90 95 100 105 110 115 120 125 130 135 140 145 150 154 159 163 167 171 176 180 445 185 189 193 197 202 206 210 215 220 224 0
d 230 24 167 0
d 231 229 24 167 0
d 232 229 24 167 0
d 233 1 2 6 7 12 13 18 23 24 29 30 35 40 45 50 55 60 65 70 75 80 85 90 95 100 105 110 115 120 125 130 135 140 145 150 154 159 163 167 171 176 180 445 185 189 193 197 202 206 210 215 220 224 229 0
d 235 197 229 0
d 236 234 197 229 0
d 237 234 197 229 0
d 238 1 2 6 7 12 13 18 23 24 29 30 35 40 45 50 55 60 65 70 75 80 85 90 95 100 105 110 115 120 125 130 135 140 145 150 154 159 163 167 171 176 180 445 185 189 193 197 202 206 210 215 220 224 229 234 0
d 240 154 229 0
d 241 239 154 229 0
d 242 239 154 229 0
d 243 1 2 6 7 12 13 18 23 24 29 30 35 40 45 50 55 60 65 70 75 80 85 90 95 100 105 110 115 120 125 130 135 140 145 150 154 159 163 167 171 176 180 445 185 189 193 197 202 206 210 215 220 224 229 234 239 0
d 245 210 229 0
d 246 244 210 229 0
d 247 244 210 229 0
d 248 1 2 6 7 12 13 18 23 24 29 30 35 40 45 50 55 60 65 70 75 80 85 90 95 100 105 110 115 120 125 130 135 140 145 150 154 159 163 167 171 176 180 445 185 189 193 197 202 206 210 215 220 224 229 234 239 244 0
d 250 220 229 0
d 251 249 220 229 0
d 252 249 220 229 0
d 253 1 2 6 7 12 13 18 23 24 29 30 35 40 45 50 55 60 65 70 75 80 85 90 95 100 105 110 115 120 125 130 135 140 145 150 154 159 163 167 171 176 180 445 185 189 193 197 202 206 210 215 220 224 229 234 239 244 249 0
d 255 163 30 0
d 256 254 163 30 0
d 257 254 163 30 0
d 258 1 2 6 7 12 13 18 23 24 29 30 35 40 45 50 55 60 65 70 75 80 85 90 95 100 105 110 115 120 125 130 135 140 145 150 154 159 163 167 171 176 180 445 185 189 193 197 202 206 210 215 220 224 229 234 239 244 249 254 0
d 260 197 254 0
d 261 259 197 254 0
d 262 259 197 254 0
d 263 1 2 6 7 12 13 18 23 24 29 30 35 40 45 50 55 60 65 70 75 80 85 90 95 100 105 110 115 120 125 130 135 140 145 150 154 159 163 167 171 176 180 445 185 189 193 197 202 206 210 215 220 224 229 234 239 244 249 254 259 0
d 265 154 254 0
d 266 264 154 254 0
d 267 264 154 254 0
d 268 1 2 6 7 12 13 18 23 24 29 30 35 40 45 50 55 60 65 70 75 80 85 90 95 100 105 110 115 120 125 130 135 140 145 150 154 159 163 167 171 176 180 445 185 189 193 197 202 206 210 215 220 224 229 234 239 244 249 254 259 264 0
d 270 210 254 0
d 271 269 210 254 0
d 272 269 210 254 0
d 273 1 2 6 7 12 13 18 23 24 29 30 35 40 45 50 55 60 65 70 75 80 85 90 95 100 105 110 115 120 125 130 135 140 145 150 154 159 163 167 171 176 180 445 185 189 193 197 202 206 210 215 220 224 229 234 239 244 249 254 259 264 269 0
d 275 220 254 0
d 276 274 220 254 0
d 277 274 220 254 0
d 278 1 2 6 7 12 13 18 23 24 29 30 35 40 45 50 55 60 65 70 75 80 85 90 95 100 105 110 115 120 125 130 135 140 145 150 154 159 163 167 171 176 180 445 185 189 193 197 202 206 210 215 220 224 229 234 239 244 249 254 259 264 269 274 0
d 280 279 24 30 0
d 281 279 24 30 0
d 282 1 2 6 7 12 13 18 23 24 29 30 35 40 45 50 55 60 65 70 75 80 85 90 95 100 105 110 115 120 125 130 135 140 145 150 154 159 163 167 171 176 180 445 185 189 193 197 202 206 210 215 220 224 229 234 239 244 249 254 259 264 269 274 279 0
d 284 197 279 0
d 285 283 197 279 0
d 286 283 197 279 0
d 287 1 2 6 7 12 13 18 23 24 29 30 35 40 45 50 55 60 65 70 75 80 85 90 95 100 105 110 115 120 125 130 135 140 145 150 154 159 163 167 171 176 180 445 185 189 193 197 202 206 210 215 220 224 229 234 239 244 249 254 259 264 269 274 279 283 0
d 289 154 279 0
d 290 288 154 279 0
d 291 288 154 279 0
d 292 1 2 6 7 12 13 18 23 24 29 30 35 40 45 50 55 60 65 70 75 80 85 90 95 100 105 110 115 120 125 130 135 140 145 150 154 159 163 167 171 176 180 445 185 189 193 197 202 206 210 215 220 224 229 234 239 244 249 254 259 264 269 274 279 283 288 0
d 294 210 279 0
d 295 293 210 279 0
d 296 293 210 279 0
d 297 1 2 6 7 12 13 18 23 24 29 30 35 40 45 50 55 60 65 70 75 80 85 90 95 100 105 110 115 120 125 130 135 140 145 150 154 159 163 167 171 176 180 445 185 189 193 197 202 206 210 215 220 224 229 234 239 244 249 254 259 264 269 274 279 283 288 293 0
d 299 220 279 0
d 300 298 220 279 0
d 301 298 220 279 0
d 302 1 2 6 7 12 13 18 23 24 29 30 35 40 45 50 55 60 65 70 75 80 85 90 95 100 105 110 115 120 125 130 135 140 145 150 154 159 163 167 171 176 180 445 185 189 193 197 202 206 210 215 220 224 229 234 239 244 249 254 259 264 269 274 279 283 288 293 298 0
d 304 197 171 0
d 305 303 197 171 0
d 306 303 197 171 0
d 307 1 2 6 7 12 13 18 23 24 29 30 35 40 45 50 55 60 65 70 75 80 85 90 95 100 105 110 115 120 125 130 135 140 145 150 154 159 163 167 171 176 180 445 185 189 193 197 202 206 210 215 220 224 229 234 239 244 249 254 259 264 269 274 279 283 288 293 298 303 0
d 309 154 171 0
d 310 308 154 171 0
d 311 308 154 171 0
d 312 1 2 6 7 12 13 18 23 24 29 30 35 40 45 50 55 60 65 70 75 80 85 90 95 100 105 110 115 120 125 130 135 140 145 150 154 159 163 167 171 176 180 445 185 189 193 197 202 206 210 215 220 224 229 234 239 244 249 254 259 264 269 274 279 283 288 293 298 303 308 0
d 314 313 269 0
d 315 313 269 0
d 316 1 2 6 7 12 13 18 23 24 29 30 35 40 45 50 55 60 65 70 75 80 85 90 95 100 105 110 115 120 125 130 135 140 145 150 154 159 163 167 171 176 180 445 185 189 193 197 202 206 210 215 220 224 229 234 239 244 249 254 259 264 269 274 279 283 288 293 298 303 308 313 0
d 319 2 318 0
d 320 317 2 318 0
d 321 317 2 318 0
d 322 1 2 6 7 12 13 18 23 24 29 30 35 40 45 50 55 60 65 70 75 80 85 90 95 100 105 110 115 120 125 130 135 140 145 150 154 159 163 167 171 176 180 445 185 189 193 197 202 206 210 215 220 224 229 234 239 244 249 254 259 264 269 274 279 283 288 293 298 303 308 313 317 318 0
d 324 323 274 0
d 325 323 274 0
d 326 1 2 6 7 12 13 18 23 24 29 30 35 40 45 50 55 60 65 70 75 80 85 90 95 100 105 110 115 120 125 130 135 140 145 150 154 159 163 167 171 176 180 445 185 189 193 197 202 206 210 215 220 224 229 234 239 244 249 254 259 264 269 274 279 283 288 293 298 303 308 313 317 318 323 0
d 329 185 328 0
d 330 185 328 215 0
d 332 185 331 0
d 333 185 331 224 0
d 334 185 328 215 331 224 0
d 335 180 189 442 202 206 185 328 215 331 224 0
d 337 185 336 0
d 338 185 336 234 0
d 340 185 339 0
d 341 185 339 239 0
d 342 185 336 234 339 239 0
d 344 185 343 0
d 345 185 343 244 0
d 347 185 346 0
d 348 185 346 249 0
d 349 185 343 244 346 249 0
d 350 185 336 234 339 239 343 244 346 249 0
d 351 180 189 442 202 206 185 328 215 331 224 336 234 339 239 343 244 346 249 0
d 353 185 352 0
d 354 185 352 259 0
d 356 185 355 0
d 357 185 355 264 0
d 358 185 352 259 355 264 0
d 360 185 359 0
d 361 185 359 269 0
d 363 185 362 0
d 364 185 362 274 0
d 365 185 359 269 362 274 0
d 366 185 352 259 355 264 359 269 362 274 0
d 368 185 367 0
d 369 185 367 283 0
d 371 185 370 0
d 372 185 370 288 0
d 373 185 367 283 370 288 0
d 375 185 374 0
d 376 185 374 293 0
d 378 185 377 0
d 379 185 377 298 0
d 380 185 374 293 377 298 0
d 381 185 367 283 370 288 374 293 377 298 0
d 382 185 352 259 355 264 359 269 362 274 367 283 370 288 374 293 377 298 0
d 383 180 189 442 202 206 185 328 215 331 224 336 234 339 239 343 244 346 249 352 259 355 264 359 269 362 274 367 283 370 288 374 293 377 298 0
d 385 2 384 0
d 386 2 384 303 0
d 388 2 387 0
d 389 2 387 308 0
d 390 2 384 303 387 308 0
d 392 2 391 0
d 393 2 391 215 0
d 395 2 394 0
d 396 2 394 224 0
d 397 2 391 215 394 224 0
d 398 2 384 303 387 308 391 215 394 224 0
d 400 2 399 0
d 401 2 399 234 0
d 403 2 402 0
d 404 2 402 239 0
d 405 2 399 234 402 239 0
d 407 2 406 0
d 408 2 406 244 0
d 410 2 409 0
d 411 2 409 249 0
d 412 2 406 244 409 249 0
d 413 2 399 234 402 239 406 244 409 249 0
d 414 2 384 303 387 308 391 215 394 224 399 234 402 239 406 244 409 249 0
d 416 2 415 0
d 417 2 415 259 0
d 419 2 418 0
d 420 2 418 264 0
d 421 2 415 259 418 264 0
d 423 2 415 259 418 264 313 317 323 509 0
d 425 2 424 0
d 426 2 424 283 0
d 428 2 427 0
d 429 2 427 288 0
d 430 2 424 283 427 288 0
d 432 2 431 0
d 433 2 431 293 0
d 435 2 434 0
d 436 2 434 298 0
d 437 2 431 293 434 298 0
d 438 2 424 283 427 288 431 293 434 298 0
d 439 2 415 259 418 264 313 317 323 509 424 283 427 288 431 293 434 298 0
d 440 2 384 303 387 308 391 215 394 224 399 234 402 239 406 244 409 249 415 259 418 264 313 317 323 509 424 283 427 288 431 293 434 298 0
d 441 180 189 442 202 206 185 328 215 331 224 336 234 339 239 343 244 346 249 352 259 355 264 359 269 362 274 367 283 370 288 374 293 377 298 2 384 303 387 308 391 394 399 402 406 409 415 418 313 317 323 509 424 427 431 434 0
d 443 1 442 0
d 444 1 442 40 0
d 446 1 445 0
d 447 1 445 50 0
d 448 1 442 40 445 50 0
d 449 1 328 0
d 450 1 328 60 0
d 451 1 331 0
d 452 1 331 70 0
d 453 1 328 60 331 70 0
d 454 1 442 40 445 50 328 60 331 70 0
d 455 1 336 0
d 456 1 336 80 0
d 457 1 339 0
d 458 1 339 85 0
d 459 1 336 80 339 85 0
d 460 1 343 0
d 461 1 343 90 0
d 462 1 346 0
d 463 1 346 95 0
d 464 1 343 90 346 95 0
d 465 1 336 80 339 85 343 90 346 95 0
d 466 1 442 40 445 50 328 60 331 70 336 80 339 85 343 90 346 95 0
d 467 1 352 0
d 468 1 352 105 0
d 469 1 355 0
d 470 1 355 110 0
d 471 1 352 105 355 110 0
d 472 1 359 0
d 473 1 359 115 0
d 474 1 362 0
d 475 1 362 120 0
d 476 1 359 115 362 120 0
d 477 1 352 105 355 110 359 115 362 120 0
d 478 1 367 0
d 479 1 367 130 0
d 480 1 370 0
d 481 1 370 135 0
d 482 1 367 130 370 135 0
d 483 1 374 0
d 484 1 374 140 0
d 485 1 377 0
d 486 1 377 145 0
d 487 1 374 140 377 145 0
d 488 1 367 130 370 135 374 140 377 145 0
d 489 1 352 105 355 110 359 115 362 120 367 130 370 135 374 140 377 145 0
d 490 1 442 40 445 50 328 60 331 70 336 80 339 85 343 90 346 95 352 105 355 110 359 115 362 120 367 130 370 135 374 140 377 145 0
d 491 2 384 40 0
d 492 2 387 50 0
d 493 2 384 40 387 50 0
d 494 2 391 60 0
d 495 2 394 70 0
d 496 2 391 60 394 70 0
d 497 2 384 40 387 50 391 60 394 70 0
d 498 2 399 80 0
d 499 2 402 85 0
d 500 2 399 80 402 85 0
d 501 2 406 90 0
d 502 2 409 95 0
d 503 2 406 90 409 95 0
d 504 2 399 80 402 85 406 90 409 95 0
d 505 2 384 40 387 50 391 60 394 70 399 80 402 85 406 90 409 95 0
d 506 2 415 105 0
d 507 2 418 110 0
d 508 2 415 105 418 110 0
d 510 2 509 0
d 511 2 509 115 0
d 512 2 318 120 0
d 513 2 509 115 318 120 0
d 514 2 415 105 418 110 509 115 318 120 0
d 515 2 424 130 0
d 516 2 427 135 0
d 517 2 424 130 427 135 0
d 518 2 431 140 0
d 519 2 434 145 0
d 520 2 431 140 434 145 0
d 521 2 424 130 427 135 431 140 434 145 0
d 522 2 415 105 418 110 509 115 318 120 424 130 427 135 431 140 434 145 0
d 523 2 384 40 387 50 391 60 394 70 399 80 402 85 406 90 409 95 415 105 418 110 509 115 318 120 424 130 427 135 431 140 434 145 0
d 524 1 442 40 445 50 328 60 331 70 336 80 339 85 343 90 346 95 352 105 355 110 359 115 362 120 367 130 370 135 374 140 377 145 2 384 387 391 394 399 402 406 409 415 418 509 318 424 427 431 434 0
d 525 180 189 442 202 206 185 328 215 331 224 336 234 339 239 343 244 346 249 352 259 355 264 359 269 362 274 367 283 370 288 374 293 377 298 2 384 303 387 308 391 394 399 402 406 409 415 418 313 317 323 509 424 427 431 434 1 40 445 50 60 70 80 85 90 95 105 110 115 120 130 135 140 145 318 0
d 526 1 2 6 7 12 13 18 23 24 29 30 35 40 45 50 55 60 65 70 75 80 85 90 95 100 105 110 115 120 125 130 135 140 145 150 154 159 163 167 171 176 180 445 185 189 193 197 202 206 210 215 220 224 229 234 239 244 249 254 259 264 269 274 279 283 288 293 298 303 308 313 317 318 323 442 328 331 336 339 343 346 352 355 359 362 367 370 374 377 384 387 391 394 399 402 406 409 415 418 509 424 427 431 434 0
3 2 0
-3 -2 0
4 -1 -3 0
4 1 3 0
-4 -1 3 0
-4 1 -3 0
5 4 0
-5 -4 0
8 7 0
-8 -7 0
9 -6 -8 0
9 6 8 0
-9 -6 8 0
-9 6 -8 0
10 9 0
-10 -9 0
11 -5 0
11 -10 0
-11 5 10 0
14 13 0
-14 -13 0
15 -12 -14 0
15 12 14 0
-15 -12 14 0
-15 12 -14 0
16 15 0
-16 -15 0
17 -11 0
17 -16 0
-17 11 16 0
-19 6 0
-19 12 0
19 -6 -12 0
20 -18 -19 0
20 18 19 0
-20 -18 19 0
-20 18 -19 0
21 20 0
-21 -20 0
22 -17 0
22 -21 0
-22 17 21 0
25 24 0
-25 -24 0
26 -23 -25 0
26 23 25 0
-26 -23 25 0
-26 23 -25 0
27 26 0
-27 -26 0
28 -22 0
28 -27 0
-28 22 27 0
31 30 0
-31 -30 0
32 -29 -31 0
32 29 31 0
-32 -29 31 0
-32 29 -31 0
33 32 0
-33 -32 0
34 -28 0
34 -33 0
-34 28 33 0
-36 23 0
-36 29 0
36 -23 -29 0
37 -35 -36 0
37 35 36 0
-37 -35 36 0
-37 35 -36 0
38 37 0
-38 -37 0
39 -34 0
39 -38 0
-39 34 38 0
-41 18 0
-41 35 0
41 -18 -35 0
42 -40 -41 0
42 40 41 0
-42 -40 41 0
-42 40 -41 0
43 42 0
-43 -42 0
44 -39 0
44 -43 0
-44 39 43 0
-46 7 0
-46 12 0
46 -7 -12 0
47 -45 -46 0
47 45 46 0
-47 -45 46 0
-47 45 -46 0
48 47 0
-48 -47 0
49 -44 0
49 -48 0
-49 44 48 0
-51 45 0
-51 35 0
51 -45 -35 0
52 -50 -51 0
52 50 51 0
-52 -50 51 0
-52 50 -51 0
53 52 0
-53 -52 0
54 -49 0
54 -53 0
-54 49 53 0
-56 6 0
-56 13 0
56 -6 -13 0
57 -55 -56 0
57 55 56 0
-57 -55 56 0
-57 55 -56 0
58 57 0
-58 -57 0
59 -54 0
59 -58 0
-59 54 58 0
-61 55 0
-61 35 0
61 -55 -35 0
62 -60 -61 0
62 60 61 0
-62 -60 61 0
-62 60 -61 0
63 62 0
-63 -62 0
64 -59 0
64 -63 0
-64 59 63 0
-66 7 0
-66 13 0
66 -7 -13 0
67 -65 -66 0
67 65 66 0
-67 -65 66 0
-67 65 -66 0
68 67 0
-68 -67 0
69 -64 0
69 -68 0
-69 64 68 0
-71 65 0
-71 35 0
71 -65 -35 0
72 -70 -71 0
72 70 71 0
-72 -70 71 0
-72 70 -71 0
73 72 0
-73 -72 0
74 -69 0
74 -73 0
-74 69 73 0
-76 24 0
-76 29 0
76 -24 -29 0
77 -75 -76 0
77 75 76 0
-77 -75 76 0
-77 75 -76 0
78 77 0
-78 -77 0
79 -74 0
79 -78 0
-79 74 78 0
-81 18 0
-81 75 0
81 -18 -75 0
82 -80 -81 0
82 80 81 0
-82 -80 81 0
-82 80 -81 0
83 82 0
-83 -82 0
84 -79 0
84 -83 0
-84 79 83 0
-86 45 0
-86 75 0
86 -45 -75 0
87 -85 -86 0
87 85 86 0
-87 -85 86 0
-87 85 -86 0
88 87 0
-88 -87 0
89 -84 0
89 -88 0
-89 84 88 0
-91 55 0
-91 75 0
91 -55 -75 0
92 -90 -91 0
92 90 91 0
-92 -90 91 0
-92 90 -91 0
93 92 0
-93 -92 0
94 -89 0
94 -93 0
-94 89 93 0
-96 65 0
-96 75 0
96 -65 -75 0
97 -95 -96 0
97 95 96 0
-97 -95 96 0
-97 95 -96 0
98 97 0
-98 -97 0
99 -94 0
99 -98 0
-99 94 98 0
-101 23 0
-101 30 0
101 -23 -30 0
102 -100 -101 0
102 100 101 0
-102 -100 101 0
-102 100 -101 0
103 102 0
-103 -102 0
104 -99 0
104 -103 0
-104 99 103 0
-106 18 0
-106 100 0
106 -18 -100 0
107 -105 -106 0
107 105 106 0
-107 -105 106 0
-107 105 -106 0
108 107 0
-108 -107 0
109 -104 0
109 -108 0
-109 104 108 0
-111 45 0
-111 100 0
111 -45 -100 0
112 -110 -111 0
112 110 111 0
-112 -110 111 0
-112 110 -111 0
113 112 0
-113 -112 0
114 -109 0
114 -113 0
-114 109 113 0
-116 55 0
-116 100 0
116 -55 -100 0
117 -115 -116 0
117 115 116 0
-117 -115 116 0
-117 115 -116 0
118 117 0
-118 -117 0
119 -114 0
119 -118 0
-119 114 118 0
-121 65 0
-121 100 0
121 -65 -100 0
122 -120 -121 0
122 120 121 0
-122 -120 121 0
-122 120 -121 0
123 122 0
-123 -122 0
124 -119 0
124 -123 0
-124 119 123 0
-126 24 0
-126 30 0
126 -24 -30 0
127 -125 -126 0
127 125 126 0
-127 -125 126 0
-127 125 -126 0
128 127 0
-128 -127 0
129 -124 0
129 -128 0
-129 124 128 0
-131 18 0
-131 125 0
131 -18 -125 0
132 -130 -131 0
132 130 131 0
-132 -130 131 0
-132 130 -131 0
133 132 0
-133 -132 0
134 -129 0
134 -133 0
-134 129 133 0
-136 45 0
-136 125 0
136 -45 -125 0
137 -135 -136 0
137 135 136 0
-137 -135 136 0
-137 135 -136 0
138 137 0
-138 -137 0
139 -134 0
139 -138 0
-139 134 138 0
-141 55 0
-141 125 0
141 -55 -125 0
142 -140 -141 0
142 140 141 0
-142 -140 141 0
-142 140 -141 0
143 142 0
-143 -142 0
144 -139 0
144 -143 0
-144 139 143 0
-146 65 0
-146 125 0
146 -65 -125 0
147 -145 -146 0
147 145 146 0
-147 -145 146 0
-147 145 -146 0
148 147 0
-148 -147 0
149 -144 0
149 -148 0
-149 144 148 0
151 -150 -14 0
151 150 14 0
-151 -150 14 0
-151 150 -14 0
152 151 0
-152 -151 0
153 -149 0
153 -152 0
-153 149 152 0
-155 7 0
-155 150 0
155 -7 -150 0
156 -154 -155 0
156 154 155 0
-156 -154 155 0
-156 154 -155 0
157 156 0
-157 -156 0
158 -153 0
158 -157 0
-158 153 157 0
160 -159 -154 0
160 159 154 0
-160 -159 154 0
-160 159 -154 0
161 160 0
-161 -160 0
162 -158 0
162 -161 0
-162 158 161 0
164 -163 -25 0
164 163 25 0
-164 -163 25 0
-164 163 -25 0
165 164 0
-165 -164 0
166 -162 0
166 -165 0
-166 162 165 0
168 -167 -31 0
168 167 31 0
-168 -167 31 0
-168 167 -31 0
169 168 0
-169 -168 0
170 -166 0
170 -169 0
-170 166 169 0
-172 163 0
-172 167 0
172 -163 -167 0
173 -171 -172 0
173 171 172 0
-173 -171 172 0
-173 171 -172 0
174 173 0
-174 -173 0
175 -170 0
175 -174 0
-175 170 174 0
177 -176 -171 0
177 176 171 0
-177 -176 171 0
-177 176 -171 0
178 177 0
-178 -177 0
179 -175 0
179 -178 0
-179 175 178 0
182 -180 -181 0
182 180 181 0
-182 -180 181 0
-182 180 -181 0
183 182 0
-183 -182 0
184 -179 0
184 -183 0
-184 179 183 0
186 -185 -3 0
186 185 3 0
-186 -185 3 0
-186 185 -3 0
187 186 0
-187 -186 0
188 -184 0
188 -187 0
-188 184 187 0
190 -189 -185 0
190 189 185 0
-190 -189 185 0
-190 189 -185 0
191 190 0
-191 -190 0
192 -188 0
192 -191 0
-192 188 191 0
194 -193 -8 0
194 193 8 0
-194 -193 8 0
-194 193 -8 0
195 194 0
-195 -194 0
196 -192 0
196 -195 0
-196 192 195 0
-198 193 0
-198 150 0
198 -193 -150 0
199 -197 -198 0
199 197 198 0
-199 -197 198 0
-199 197 -198 0
200 199 0
-200 -199 0
201 -196 0
201 -200 0
-201 196 200 0
203 -202 -197 0
203 202 197 0
-203 -202 197 0
-203 202 -197 0
204 203 0
-204 -203 0
205 -201 0
205 -204 0
-205 201 204 0
207 -206 -171 0
207 206 171 0
-207 -206 171 0
-207 206 -171 0
208 207 0
-208 -207 0
209 -205 0
209 -208 0
-209 205 208 0
-211 193 0
-211 13 0
211 -193 -13 0
212 -210 -211 0
212 210 211 0
-212 -210 211 0
-212 210 -211 0
213 212 0
-213 -212 0
214 -209 0
214 -213 0
-214 209 213 0
-216 210 0
-216 171 0
216 -210 -171 0
217 -215 -216 0
217 215 216 0
-217 -215 216 0
-217 215 -216 0
218 217 0
-218 -217 0
219 -214 0
219 -218 0
-219 214 218 0
221 -220 -66 0
221 220 66 0
-221 -220 66 0
-221 220 -66 0
222 221 0
-222 -221 0
223 -219 0
223 -222 0
-223 219 222 0
-225 220 0
-225 171 0
225 -220 -171 0
226 -224 -225 0
226 224 225 0
-226 -224 225 0
-226 224 -225 0
227 226 0
-227 -226 0
228 -223 0
228 -227 0
-228 223 227 0
-230 24 0
-230 167 0
230 -24 -167 0
231 -229 -230 0
231 229 230 0
-231 -229 230 0
-231 229 -230 0
232 231 0
-232 -231 0
233 -228 0
233 -232 0
-233 228 232 0
-235 197 0
-235 229 0
235 -197 -229 0
236 -234 -235 0
236 234 235 0
-236 -234 235 0
-236 234 -235 0
237 236 0
-237 -236 0
238 -233 0
238 -237 0
-238 233 237 0
-240 154 0
-240 229 0
240 -154 -229 0
241 -239 -240 0
241 239 240 0
-241 -239 240 0
-241 239 -240 0
242 241 0
-242 -241 0
243 -238 0
243 -242 0
-243 238 242 0
-245 210 0
-245 229 0
245 -210 -229 0
246 -244 -245 0
246 244 245 0
-246 -244 245 0
-246 244 -245 0
247 246 0
-247 -246 0
248 -243 0
248 -247 0
-248 243 247 0
-250 220 0
-250 229 0
250 -220 -229 0
251 -249 -250 0
251 249 250 0
-251 -249 250 0
-251 249 -250 0
252 251 0
-252 -251 0
253 -248 0
253 -252 0
-253 248 252 0
-255 163 0
-255 30 0
255 -163 -30 0
256 -254 -255 0
256 254 255 0
-256 -254 255 0
-256 254 -255 0
257 256 0
-257 -256 0
258 -253 0
258 -257 0
-258 253 257 0
-260 197 0
-260 254 0
260 -197 -254 0
261 -259 -260 0
261 259 260 0
-261 -259 260 0
-261 259 -260 0
262 261 0
-262 -261 0
263 -258 0
263 -262 0
-263 258 262 0
-265 154 0
-265 254 0
265 -154 -254 0
266 -264 -265 0
266 264 265 0
-266 -264 265 0
-266 264 -265 0
267 266 0
-267 -266 0
268 -263 0
268 -267 0
-268 263 267 0
-270 210 0
-270 254 0
270 -210 -254 0
271 -269 -270 0
271 269 270 0
-271 -269 270 0
-271 269 -270 0
272 271 0
-272 -271 0
273 -268 0
273 -272 0
-273 268 272 0
-275 220 0
-275 254 0
275 -220 -254 0
276 -274 -275 0
276 274 275 0
-276 -274 275 0
-276 274 -275 0
277 276 0
-277 -276 0
278 -273 0
278 -277 0
-278 273 277 0
280 -279 -126 0
280 279 126 0
-280 -279 126 0
-280 279 -126 0
281 280 0
-281 -280 0
282 -278 0
282 -281 0
-282 278 281 0
-284 197 0
-284 279 0
284 -197 -279 0
285 -283 -284 0
285 283 284 0
-285 -283 284 0
-285 283 -284 0
286 285 0
-286 -285 0
287 -282 0
287 -286 0
-287 282 286 0
-289 154 0
-289 279 0
289 -154 -279 0
290 -288 -289 0
290 288 289 0
-290 -288 289 0
-290 288 -289 0
291 290 0
-291 -290 0
292 -287 0
292 -291 0
-292 287 291 0
-294 210 0
-294 279 0
294 -210 -279 0
295 -293 -294 0
295 293 294 0
-295 -293 294 0
-295 293 -294 0
296 295 0
-296 -295 0
297 -292 0
297 -296 0
-297 292 296 0
-299 220 0
-299 279 0
299 -220 -279 0
300 -298 -299 0
300 298 299 0
-300 -298 299 0
-300 298 -299 0
301 300 0
-301 -300 0
302 -297 0
302 -301 0
-302 297 301 0
-304 197 0
-304 171 0
304 -197 -171 0
305 -303 -304 0
305 303 304 0
-305 -303 304 0
-305 303 -304 0
306 305 0
-306 -305 0
307 -302 0
307 -306 0
-307 302 306 0
-309 154 0
-309 171 0
309 -154 -171 0
310 -308 -309 0
310 308 309 0
-310 -308 309 0
-310 308 -309 0
311 310 0
-311 -310 0
312 -307 0
312 -311 0
-312 307 311 0
314 -313 -269 0
314 313 269 0
-314 -313 269 0
-314 313 -269 0
315 314 0
-315 -314 0
316 -312 0
316 -315 0
-316 312 315 0
-319 2 0
-319 318 0
319 -2 -318 0
320 -317 -319 0
320 317 319 0
-320 -317 319 0
-320 317 -319 0
321 320 0
-321 -320 0
322 -316 0
322 -321 0
-322 316 321 0
324 -323 -274 0
324 323 274 0
-324 -323 274 0
-324 323 -274 0
325 324 0
-325 -324 0
326 -322 0
326 -325 0
-326 322 325 0
-329 185 0
-329 328 0
329 -185 -328 0
-330 329 0
-330 215 0
330 -329 -215 0
-332 185 0
-332 331 0
332 -185 -331 0
-333 332 0
-333 224 0
333 -332 -224 0
334 -330 0
334 -333 0
-334 330 333 0
335 -327 0
335 -334 0
-335 327 334 0
337 -185 -336 0
337 185 336 0
-337 -185 336 0
-337 185 -336 0
-338 337 0
-338 234 0
338 -337 -234 0
-340 185 0
-340 339 0
340 -185 -339 0
-341 340 0
-341 239 0
341 -340 -239 0
342 -338 0
342 -341 0
-342 338 341 0
-344 185 0
-344 343 0
344 -185 -343 0
-345 344 0
-345 244 0
345 -344 -244 0
-347 185 0
-347 346 0
347 -185 -346 0
-348 347 0
-348 249 0
348 -347 -249 0
349 -345 0
349 -348 0
-349 345 348 0
350 -342 0
350 -349 0
-350 342 349 0
351 -335 0
351 -350 0
-351 335 350 0
-353 185 0
-353 352 0
353 -185 -352 0
-354 353 0
-354 259 0
354 -353 -259 0
-356 185 0
-356 355 0
356 -185 -355 0
-357 356 0
-357 264 0
357 -356 -264 0
358 -354 0
358 -357 0
-358 354 357 0
-360 185 0
-360 359 0
360 -185 -359 0
-361 360 0
-361 269 0
361 -360 -269 0
-363 185 0
-363 362 0
363 -185 -362 0
-364 363 0
-364 274 0
364 -363 -274 0
365 -361 0
365 -364 0
-365 361 364 0
366 -358 0
366 -365 0
-366 358 365 0
-368 185 0
-368 367 0
368 -185 -367 0
-369 368 0
-369 283 0
369 -368 -283 0
-371 185 0
-371 370 0
371 -185 -370 0
-372 371 0
-372 288 0
372 -371 -288 0
373 -369 0
373 -372 0
-373 369 372 0
-375 185 0
-375 374 0
375 -185 -374 0
-376 375 0
-376 293 0
376 -375 -293 0
-378 185 0
-378 377 0
378 -185 -377 0
-379 378 0
-379 298 0
379 -378 -298 0
380 -376 0
380 -379 0
-380 376 379 0
381 -373 0
381 -380 0
-381 373 380 0
382 -366 0
382 -381 0
-382 366 381 0
383 -351 0
383 -382 0
-383 351 382 0
-385 2 0
-385 384 0
385 -2 -384 0
-386 385 0
-386 303 0
386 -385 -303 0
-388 2 0
-388 387 0
388 -2 -387 0
-389 388 0
-389 308 0
389 -388 -308 0
390 -386 0
390 -389 0
-390 386 389 0
-392 2 0
-392 391 0
392 -2 -391 0
-393 392 0
-393 215 0
393 -392 -215 0
-395 2 0
-395 394 0
395 -2 -394 0
-396 395 0
-396 224 0
396 -395 -224 0
397 -393 0
397 -396 0
-397 393 396 0
398 -390 0
398 -397 0
-398 390 397 0
-400 2 0
-400 399 0
400 -2 -399 0
-401 400 0
-401 234 0
401 -400 -234 0
-403 2 0
-403 402 0
403 -2 -402 0
-404 403 0
-404 239 0
404 -403 -239 0
405 -401 0
405 -404 0
-405 401 404 0
-407 2 0
-407 406 0
407 -2 -406 0
-408 407 0
-408 244 0
408 -407 -244 0
-410 2 0
-410 409 0
410 -2 -409 0
-411 410 0
-411 249 0
411 -410 -249 0
412 -408 0
412 -411 0
-412 408 411 0
413 -405 0
413 -412 0
-413 405 412 0
414 -398 0
414 -413 0
-414 398 413 0
-416 2 0
-416 415 0
416 -2 -415 0
-417 416 0
-417 259 0
417 -416 -259 0
-419 2 0
-419 418 0
419 -2 -418 0
-420 419 0
-420 264 0
420 -419 -264 0
421 -417 0
421 -420 0
-421 417 420 0
423 -421 0
423 -422 0
-423 421 422 0
-425 2 0
-425 424 0
425 -2 -424 0
-426 425 0
-426 283 0
426 -425 -283 0
-428 2 0
-428 427 0
428 -2 -427 0
-429 428 0
-429 288 0
429 -428 -288 0
430 -426 0
430 -429 0
-430 426 429 0
-432 2 0
-432 431 0
432 -2 -431 0
-433 432 0
-433 293 0
433 -432 -293 0
-435 2 0
-435 434 0
435 -2 -434 0
-436 435 0
-436 298 0
436 -435 -298 0
437 -433 0
437 -436 0
-437 433 436 0
438 -430 0
438 -437 0
-438 430 437 0
439 -423 0
439 -438 0
-439 423 438 0
440 -414 0
440 -439 0
-440 414 439 0
441 -383 0
441 -440 0
-441 383 440 0
-443 1 0
-443 442 0
443 -1 -442 0
-444 443 0
-444 40 0
444 -443 -40 0
-446 1 0
-446 445 0
446 -1 -445 0
-447 446 0
-447 50 0
447 -446 -50 0
448 -444 0
448 -447 0
-448 444 447 0
-449 1 0
-449 328 0
449 -1 -328 0
-450 449 0
-450 60 0
450 -449 -60 0
-451 1 0
-451 331 0
451 -1 -331 0
-452 451 0
-452 70 0
452 -451 -70 0
453 -450 0
453 -452 0
-453 450 452 0
454 -448 0
454 -453 0
-454 448 453 0
-455 1 0
-455 336 0
455 -1 -336 0
-456 455 0
-456 80 0
456 -455 -80 0
-457 1 0
-457 339 0
457 -1 -339 0
-458 457 0
-458 85 0
458 -457 -85 0
459 -456 0
459 -458 0
-459 456 458 0
-460 1 0
-460 343 0
460 -1 -343 0
-461 460 0
-461 90 0
461 -460 -90 0
-462 1 0
-462 346 0
462 -1 -346 0
-463 462 0
-463 95 0
463 -462 -95 0
464 -461 0
464 -463 0
-464 461 463 0
465 -459 0
465 -464 0
-465 459 464 0
466 -454 0
466 -465 0
-466 454 465 0
-467 1 0
-467 352 0
467 -1 -352 0
-468 467 0
-468 105 0
468 -467 -105 0
-469 1 0
-469 355 0
469 -1 -355 0
-470 469 0
-470 110 0
470 -469 -110 0
471 -468 0
471 -470 0
-471 468 470 0
-472 1 0
-472 359 0
472 -1 -359 0
-473 472 0
-473 115 0
473 -472 -115 0
-474 1 0
-474 362 0
474 -1 -362 0
-475 474 0
-475 120 0
475 -474 -120 0
476 -473 0
476 -475 0
-476 473 475 0
477 -471 0
477 -476 0
-477 471 476 0
-478 1 0
-478 367 0
478 -1 -367 0
-479 478 0
-479 130 0
479 -478 -130 0
-480 1 0
-480 370 0
480 -1 -370 0
-481 480 0
-481 135 0
481 -480 -135 0
482 -479 0
482 -481 0
-482 479 481 0
-483 1 0
-483 374 0
483 -1 -374 0
-484 483 0
-484 140 0
484 -483 -140 0
-485 1 0
-485 377 0
485 -1 -377 0
-486 485 0
-486 145 0
486 -485 -145 0
487 -484 0
487 -486 0
-487 484 486 0
488 -482 0
488 -487 0
-488 482 487 0
489 -477 0
489 -488 0
-489 477 488 0
490 -466 0
490 -489 0
-490 466 489 0
-491 385 0
-491 40 0
491 -385 -40 0
-492 388 0
-492 50 0
492 -388 -50 0
493 -491 0
493 -492 0
-493 491 492 0
-494 392 0
-494 60 0
494 -392 -60 0
-495 395 0
-495 70 0
495 -395 -70 0
496 -494 0
496 -495 0
-496 494 495 0
497 -493 0
497 -496 0
-497 493 496 0
-498 400 0
-498 80 0
498 -400 -80 0
-499 403 0
-499 85 0
499 -403 -85 0
500 -498 0
500 -499 0
-500 498 499 0
-501 407 0
-501 90 0
501 -407 -90 0
-502 410 0
-502 95 0
502 -410 -95 0
503 -501 0
503 -502 0
-503 501 502 0
504 -500 0
504 -503 0
-504 500 503 0
505 -497 0
505 -504 0
-505 497 504 0
-506 416 0
-506 105 0
506 -416 -105 0
-507 419 0
-507 110 0
507 -419 -110 0
508 -506 0
508 -507 0
-508 506 507 0
-510 2 0
-510 509 0
510 -2 -509 0
-511 510 0
-511 115 0
511 -510 -115 0
-512 319 0
-512 120 0
512 -319 -120 0
513 -511 0
513 -512 0
-513 511 512 0
514 -508 0
514 -513 0
-514 508 513 0
-515 425 0
-515 130 0
515 -425 -130 0
-516 428 0
-516 135 0
516 -428 -135 0
517 -515 0
517 -516 0
-517 515 516 0
-518 432 0
-518 140 0
518 -432 -140 0
-519 435 0
-519 145 0
519 -435 -145 0
520 -518 0
520 -519 0
-520 518 519 0
521 -517 0
521 -520 0
-521 517 520 0
522 -514 0
522 -521 0
-522 514 521 0
523 -505 0
523 -522 0
-523 505 522 0
524 -490 0
524 -523 0
-524 490 523 0
525 -441 -524 0
525 441 524 0
-525 -441 524 0
-525 441 -524 0
526 -326 0
526 -525 0
-526 326 525 0
526 0
